;  time = 432.6963427066803
(set-logic QF_FP)
(declare-const x0 (_ FloatingPoint 8 24))
(declare-const x1 (_ FloatingPoint 8 24))
(declare-const x2 (_ FloatingPoint 8 24))
(declare-const x3 (_ FloatingPoint 8 24))
(declare-const x4 (_ FloatingPoint 8 24))
(declare-const x5 (_ FloatingPoint 8 24))
(declare-const x6 (_ FloatingPoint 8 24))
(declare-const x7 (_ FloatingPoint 8 24))
(declare-const x8 (_ FloatingPoint 8 24))
(declare-const x9 (_ FloatingPoint 8 24))
(declare-const x10 (_ FloatingPoint 8 24))
(declare-const x11 (_ FloatingPoint 8 24))
(declare-const x12 (_ FloatingPoint 8 24))
(declare-const x13 (_ FloatingPoint 8 24))
(declare-const x14 (_ FloatingPoint 8 24))
(assert (fp.isSubnormal (fp.add RNE (fp.mul RNE (fp.abs x8) (fp.sub RNE (fp.add RNE x10 (fp.sub RNE (fp.add RNE (fp.add RNE (fp.sub RNE (fp.sub RNE x4 x14) (fp.sub RNE x5 x6)) (fp.sub RNE (fp.mul RNE x13 x13) x7)) (fp.mul RNE (fp.neg (fp.abs x5)) (fp.add RNE (fp.sub RNE x14 x8) x3))) x11)) (fp.add RNE (fp.add RNE (fp.sub RNE (fp.mul RNE (fp.neg x2) (fp.sub RNE (fp.mul RNE x1 x13) (fp.mul RNE x5 x1))) x10) (fp.sub RNE (fp.abs (fp.add RNE (fp.sub RNE x8 x7) (fp.sub RNE x5 x11))) x3)) (fp.neg (fp.add RNE (fp.abs (fp.sub RNE x9 x5)) (fp.add RNE (fp.abs x13) (fp.neg (fp.add RNE x11 x12)))))))) (fp.add RNE x0 (fp.neg (fp.sub RNE (fp.neg x5) (fp.sub RNE (fp.sub RNE (fp.sub RNE (fp.abs (fp.sub RNE x3 x6)) (fp.mul RNE x1 (fp.mul RNE x7 x8))) (fp.abs (fp.neg (fp.add RNE x8 x13)))) (fp.mul RNE (fp.sub RNE (fp.abs x7) (fp.sub RNE (fp.add RNE x0 x8) (fp.abs x8))) (fp.neg (fp.abs (fp.sub RNE x3 x12)))))))))))
(check-sat)